NAME : gaussian_random98.7064.tour
COMMENT : Length = 7064
COMMENT : Found by LKH [Keld Helsgaun] Sun Jul  7 17:48:29 2024
TYPE : TOUR
DIMENSION : 98
TOUR_SECTION
1
31
97
62
92
34
51
5
71
72
8
95
25
26
53
50
73
35
47
14
29
79
15
66
21
90
45
36
41
63
70
77
11
38
56
9
84
49
2
89
59
54
76
61
87
57
44
96
83
42
40
24
23
13
88
86
58
19
17
74
98
33
28
43
18
60
93
4
67
55
27
10
22
3
20
68
64
16
48
39
91
46
6
69
32
82
81
12
7
78
52
30
37
65
80
94
85
75
-1
EOF
